(set-info :smt-lib-version 2.6)
(set-logic QF_NIA)
(set-info :source |
Generated by: Cristina Borralleras, Daniel Larraz, Albert Oliveras, Enric Rodriguez-Carbonell, Albert Rubio
Generated on: 2017-04-27
Generator: VeryMax
Application: Termination proving
Target solver: barcelogic
|)
(set-info :license "https://creativecommons.org/licenses/by/4.0/")
(set-info :category "industrial")
(set-info :status sat)
(declare-fun Nl8arg11 () Int)
(declare-fun Nl8arg21 () Int)
(declare-fun Nl8arg31 () Int)
(declare-fun Nl8arg41 () Int)
(declare-fun Nl8arg51 () Int)
(declare-fun lam0n0 () Int)
(declare-fun lam0n1 () Int)
(declare-fun lam0n2 () Int)
(declare-fun lam0n3 () Int)
(declare-fun lam0n4 () Int)
(declare-fun lam0n5 () Int)
(declare-fun lam0n6 () Int)
(declare-fun lam0n7 () Int)
(declare-fun lam0n8 () Int)
(declare-fun lam0n9 () Int)
(declare-fun lam0n10 () Int)
(declare-fun UndefCntr0_CT () Int)
(declare-fun Nl8CT1 () Int)
(declare-fun UndefCntr0_arg1 () Int)
(declare-fun UndefCntr0_arg2 () Int)
(declare-fun UndefCntr0_arg3 () Int)
(declare-fun UndefCntr0_arg4 () Int)
(declare-fun UndefCntr0_arg5 () Int)
(declare-fun UndefCntr0_undef122 () Int)
(declare-fun UndefCntr0_undef123 () Int)
(declare-fun UndefCntr0_undef124 () Int)
(declare-fun UndefCntr0_undef125 () Int)
(declare-fun UndefCntr0_undef126 () Int)
(declare-fun lam1n0 () Int)
(declare-fun lam1n1 () Int)
(declare-fun lam1n2 () Int)
(declare-fun lam1n3 () Int)
(declare-fun lam1n4 () Int)
(declare-fun lam1n5 () Int)
(declare-fun lam1n6 () Int)
(declare-fun lam1n7 () Int)
(declare-fun lam1n8 () Int)
(declare-fun lam1n9 () Int)
(declare-fun lam1n10 () Int)
(declare-fun lam2n0 () Int)
(declare-fun lam2n1 () Int)
(declare-fun lam2n2 () Int)
(declare-fun lam2n3 () Int)
(declare-fun lam2n4 () Int)
(declare-fun lam2n5 () Int)
(declare-fun lam2n6 () Int)
(declare-fun lam2n7 () Int)
(declare-fun lam2n8 () Int)
(declare-fun lam2n9 () Int)
(declare-fun lam2n10 () Int)
(declare-fun lam2n11 () Int)
(declare-fun lam2n12 () Int)
(declare-fun lam2n13 () Int)
(declare-fun lam2n14 () Int)
(declare-fun lam2n15 () Int)
(declare-fun lam2n16 () Int)
(declare-fun lam3n0 () Int)
(declare-fun lam3n1 () Int)
(declare-fun lam3n2 () Int)
(declare-fun lam3n3 () Int)
(declare-fun lam3n4 () Int)
(declare-fun lam3n5 () Int)
(declare-fun lam3n6 () Int)
(declare-fun lam3n7 () Int)
(declare-fun lam3n8 () Int)
(declare-fun lam3n9 () Int)
(declare-fun lam3n10 () Int)
(declare-fun lam3n11 () Int)
(declare-fun lam3n12 () Int)
(declare-fun lam3n13 () Int)
(declare-fun lam3n14 () Int)
(declare-fun lam3n15 () Int)
(declare-fun lam3n16 () Int)
(declare-fun lam3n17 () Int)
(declare-fun lam4n0 () Int)
(declare-fun lam4n1 () Int)
(declare-fun lam4n2 () Int)
(declare-fun lam4n3 () Int)
(declare-fun lam4n4 () Int)
(declare-fun lam4n5 () Int)
(declare-fun lam4n6 () Int)
(declare-fun lam4n7 () Int)
(declare-fun lam4n8 () Int)
(declare-fun lam4n9 () Int)
(declare-fun lam4n10 () Int)
(declare-fun lam4n11 () Int)
(declare-fun lam4n12 () Int)
(declare-fun lam4n13 () Int)
(declare-fun undef1 () Int)
(declare-fun undef16 () Int)
(declare-fun undef17 () Int)
(declare-fun undef104 () Int)
(declare-fun undef159 () Int)
(declare-fun undef2 () Int)
(declare-fun undef18 () Int)
(declare-fun undef23 () Int)
(declare-fun undef111 () Int)
(declare-fun undef105 () Int)
(declare-fun undef160 () Int)
(declare-fun undef106 () Int)
(declare-fun undef107 () Int)
(declare-fun undef108 () Int)
(declare-fun undef24 () Int)
(declare-fun undef25 () Int)
(declare-fun undef31 () Int)
(declare-fun undef32 () Int)
(declare-fun undef112 () Int)
(declare-fun undef119 () Int)
(declare-fun undef120 () Int)
(declare-fun undef113 () Int)
(declare-fun undef121 () Int)
(declare-fun undef114 () Int)
(declare-fun undef115 () Int)
(declare-fun undef116 () Int)
(declare-fun FV_arg1_1 () Int)
(declare-fun FV_arg2_1 () Int)
(declare-fun FV_arg3_1 () Int)
(declare-fun FV_arg4_1 () Int)
(declare-fun FV_arg5_1 () Int)
(declare-fun FV_undef122_0 () Int)
(declare-fun FV_undef123_0 () Int)
(declare-fun FV_arg1_0 () Int)
(declare-fun FV_arg2_0 () Int)
(declare-fun FV_arg3_0 () Int)
(declare-fun FV_arg4_0 () Int)
(declare-fun FV_arg5_0 () Int)
(declare-fun FV_undef124_0 () Int)
(declare-fun FV_undef125_0 () Int)
(declare-fun FV_undef126_0 () Int)
(declare-fun lam5n0 () Int)
(declare-fun lam5n1 () Int)
(declare-fun lam5n2 () Int)
(declare-fun lam5n3 () Int)
(declare-fun lam5n4 () Int)
(declare-fun lam5n5 () Int)
(declare-fun lam5n6 () Int)
(declare-fun lam6n0 () Int)
(declare-fun lam6n1 () Int)
(declare-fun lam6n2 () Int)
(declare-fun lam6n3 () Int)
(declare-fun lam6n4 () Int)
(declare-fun lam6n5 () Int)
(declare-fun lam7n0 () Int)
(declare-fun lam7n1 () Int)
(declare-fun lam7n2 () Int)
(declare-fun lam7n3 () Int)
(declare-fun lam7n4 () Int)
(declare-fun lam7n5 () Int)
(declare-fun FV_arg1_2 () Int)
(declare-fun FV_arg2_2 () Int)
(declare-fun FV_arg4_2 () Int)
(declare-fun FV_arg3_2 () Int)
(declare-fun FV_arg5_2 () Int)
(declare-fun FV_undef122_2 () Int)
(declare-fun FV_undef123_2 () Int)
(declare-fun FV_undef124_2 () Int)
(assert ( and ( <= ( - 1 ) Nl8arg11 ) ( <= Nl8arg11 1 ) ( <= ( - 1 ) Nl8arg21 ) ( <= Nl8arg21 1 ) ( <= ( - 1 ) Nl8arg31 ) ( <= Nl8arg31 1 ) ( <= ( - 1 ) Nl8arg41 ) ( <= Nl8arg41 1 ) ( <= ( - 1 ) Nl8arg51 ) ( <= Nl8arg51 1 ) ))
(assert ( or ( and ( >= lam0n0 0 ) ( >= lam0n1 0 ) ( >= lam0n2 0 ) ( >= lam0n3 0 ) ( >= lam0n4 0 ) ( >= lam0n5 0 ) ( >= lam0n6 0 ) ( >= lam0n7 0 ) ( >= lam0n8 0 ) ( >= lam0n9 0 ) ( >= lam0n10 0 ) ( > ( + ( * 1 lam0n0 ) ( * 1 lam0n1 ) ( * 1 lam0n2 ) ( * 1 lam0n3 ) ( * 2 lam0n4 ) ( * 2 lam0n5 ) ( * 5 lam0n6 ) ( * 3 lam0n7 ) ( * 6 lam0n8 ) ( * UndefCntr0_CT lam0n9 ) ( * Nl8CT1 lam0n10 ) ( - 1 ) ) 0 ) ( = ( + ( * ( - 1 ) lam0n0 ) ( * ( - 1 ) lam0n4 ) ( * ( - 1 ) lam0n5 ) ( * ( - 1 ) lam0n7 ) ( * ( - 1 ) lam0n8 ) ( * UndefCntr0_arg1 lam0n9 ) ( * Nl8arg11 lam0n10 ) ) 0 ) ( = ( + ( * ( - 1 ) lam0n0 ) ( * ( - 1 ) lam0n1 ) ( * ( - 1 ) lam0n4 ) ( * UndefCntr0_arg2 lam0n9 ) ( * Nl8arg21 lam0n10 ) ) 0 ) ( = ( + ( * 1 lam0n4 ) ( * 1 lam0n8 ) ( * UndefCntr0_arg3 lam0n9 ) ( * Nl8arg31 lam0n10 ) ) 0 ) ( = ( + ( * 1 lam0n0 ) ( * 1 lam0n5 ) ( * UndefCntr0_arg4 lam0n9 ) ( * Nl8arg41 lam0n10 ) ) 0 ) ( = ( + ( * UndefCntr0_arg5 lam0n9 ) ( * Nl8arg51 lam0n10 ) ) 0 ) ( = ( + ( * ( - 1 ) lam0n2 ) ( * UndefCntr0_undef122 lam0n9 ) ) 0 ) ( = ( + ( * ( - 1 ) lam0n3 ) ( * UndefCntr0_undef123 lam0n9 ) ) 0 ) ( = ( + ( * 1 lam0n6 ) ( * UndefCntr0_undef124 lam0n9 ) ) 0 ) ( = ( * UndefCntr0_undef125 lam0n9 ) 0 ) ( = ( * UndefCntr0_undef126 lam0n9 ) 0 ) ) ( and ( >= lam1n0 0 ) ( >= lam1n1 0 ) ( >= lam1n2 0 ) ( >= lam1n3 0 ) ( >= lam1n4 0 ) ( >= lam1n5 0 ) ( >= lam1n6 0 ) ( >= lam1n7 0 ) ( >= lam1n8 0 ) ( >= lam1n9 0 ) ( >= lam1n10 0 ) ( > ( + ( * 1 lam1n0 ) ( * 1 lam1n1 ) ( * 1 lam1n2 ) ( * 1 lam1n3 ) ( * 2 lam1n4 ) ( * 2 lam1n5 ) ( * 5 lam1n6 ) ( * 3 lam1n7 ) ( * 6 lam1n8 ) ( * UndefCntr0_CT lam1n9 ) ( * Nl8CT1 lam1n10 ) ( - 1 ( + ( + ( + ( + ( + Nl8CT1 ( * Nl8arg11 0 ) ) ( * Nl8arg21 0 ) ) ( * Nl8arg31 0 ) ) ( * Nl8arg41 0 ) ) ( * Nl8arg51 0 ) ) ) ) 0 ) ( = ( + ( * ( - 1 ) lam1n0 ) ( * ( - 1 ) lam1n4 ) ( * ( - 1 ) lam1n5 ) ( * ( - 1 ) lam1n7 ) ( * ( - 1 ) lam1n8 ) ( * UndefCntr0_arg1 lam1n9 ) ( * Nl8arg11 lam1n10 ) ) 0 ) ( = ( + ( * ( - 1 ) lam1n0 ) ( * ( - 1 ) lam1n1 ) ( * ( - 1 ) lam1n4 ) ( * UndefCntr0_arg2 lam1n9 ) ( * Nl8arg21 lam1n10 ) ) 0 ) ( = ( + ( * 1 lam1n4 ) ( * 1 lam1n8 ) ( * UndefCntr0_arg3 lam1n9 ) ( * Nl8arg31 lam1n10 ) ) 0 ) ( = ( + ( * 1 lam1n0 ) ( * 1 lam1n5 ) ( * UndefCntr0_arg4 lam1n9 ) ( * Nl8arg41 lam1n10 ) ) 0 ) ( = ( + ( * UndefCntr0_arg5 lam1n9 ) ( * Nl8arg51 lam1n10 ) ) 0 ) ( = ( + ( * ( - 1 ) lam1n2 ) ( * UndefCntr0_undef122 lam1n9 ) ( - ( + 0 ( * Nl8arg11 1 ) ) ) ) 0 ) ( = ( + ( * ( - 1 ) lam1n3 ) ( * UndefCntr0_undef123 lam1n9 ) ( - ( + 0 ( * Nl8arg21 1 ) ) ) ) 0 ) ( = ( + ( * 1 lam1n6 ) ( * UndefCntr0_undef124 lam1n9 ) ( - ( + 0 ( * Nl8arg31 1 ) ) ) ) 0 ) ( = ( + ( * UndefCntr0_undef125 lam1n9 ) ( - ( + 0 ( * Nl8arg41 1 ) ) ) ) 0 ) ( = ( + ( * UndefCntr0_undef126 lam1n9 ) ( - ( + 0 ( * Nl8arg51 1 ) ) ) ) 0 ) ) ))
(assert ( and ( <= ( + Nl8CT1 ( * Nl8arg11 FV_arg1_1 ) ( * Nl8arg21 FV_arg2_1 ) ( * Nl8arg31 FV_arg3_1 ) ( * Nl8arg41 FV_arg4_1 ) ( * Nl8arg51 FV_arg5_1 ) ) 0 ) ( <= ( + 1 ( * ( - 1 ) FV_arg2_1 ) ) 0 ) ( <= ( + 6 ( * ( - 1 ) FV_arg1_1 ) FV_arg3_1 ) 0 ) ))
(assert ( or ( not ( = UndefCntr0_arg1 0 ) ) ( not ( = UndefCntr0_arg2 0 ) ) ( not ( = UndefCntr0_arg3 0 ) ) ( not ( = UndefCntr0_arg4 0 ) ) ( not ( = UndefCntr0_arg5 0 ) ) ( not ( = UndefCntr0_undef122 0 ) ) ( not ( = UndefCntr0_undef123 0 ) ) ( not ( = UndefCntr0_undef124 0 ) ) ( not ( = UndefCntr0_undef125 0 ) ) ( not ( = UndefCntr0_undef126 0 ) ) ( = UndefCntr0_CT 0 ) ))
(assert ( or ( and ( = UndefCntr0_arg1 0 ) ( = UndefCntr0_arg2 0 ) ( = UndefCntr0_arg3 0 ) ( = UndefCntr0_arg4 0 ) ( = UndefCntr0_arg5 0 ) ) ( or ( not ( = UndefCntr0_undef122 0 ) ) ( not ( = UndefCntr0_undef123 0 ) ) ( not ( = UndefCntr0_undef124 0 ) ) ( not ( = UndefCntr0_undef125 0 ) ) ( not ( = UndefCntr0_undef126 0 ) ) ) ))
(assert ( or ( = UndefCntr0_undef122 0 ) ( and ( and ( = UndefCntr0_arg1 0 ) ( = UndefCntr0_arg2 0 ) ( = UndefCntr0_arg3 0 ) ( = UndefCntr0_arg4 0 ) ( = UndefCntr0_arg5 0 ) ( = UndefCntr0_undef125 0 ) ( = UndefCntr0_undef126 0 ) ( = UndefCntr0_undef123 0 ) ( = UndefCntr0_undef124 0 ) ) ( or ( and ( <= ( + 1 ( * ( - 1 ) FV_undef122_0 ) ) 0 ) ( <= ( + UndefCntr0_CT ( * UndefCntr0_undef122 FV_undef122_0 ) ( * UndefCntr0_undef123 FV_undef123_0 ) ( * UndefCntr0_arg1 FV_arg1_0 ) ( * UndefCntr0_arg2 FV_arg2_0 ) ( * UndefCntr0_arg3 FV_arg3_0 ) ( * UndefCntr0_arg4 FV_arg4_0 ) ( * UndefCntr0_arg5 FV_arg5_0 ) ( * UndefCntr0_undef124 FV_undef124_0 ) ( * UndefCntr0_undef125 FV_undef125_0 ) ( * UndefCntr0_undef126 FV_undef126_0 ) ) 0 ) ) ( and ( <= ( + 1 ( * ( - 1 ) FV_undef122_0 ) ) 0 ) ( <= ( + UndefCntr0_CT ( * UndefCntr0_undef122 FV_undef122_0 ) ( * UndefCntr0_undef123 FV_undef123_0 ) ( * UndefCntr0_arg1 FV_arg1_0 ) ( * UndefCntr0_arg2 FV_arg2_0 ) ( * UndefCntr0_arg3 FV_arg3_0 ) ( * UndefCntr0_arg4 FV_arg4_0 ) ( * UndefCntr0_arg5 FV_arg5_0 ) ( * UndefCntr0_undef124 FV_undef124_0 ) ( * UndefCntr0_undef125 FV_undef125_0 ) ( * UndefCntr0_undef126 FV_undef126_0 ) ) 0 ) ) ) ) ))
(assert ( or ( = UndefCntr0_undef123 0 ) ( and ( and ( = UndefCntr0_arg1 0 ) ( = UndefCntr0_arg2 0 ) ( = UndefCntr0_arg3 0 ) ( = UndefCntr0_arg4 0 ) ( = UndefCntr0_arg5 0 ) ( = UndefCntr0_undef125 0 ) ( = UndefCntr0_undef126 0 ) ( = UndefCntr0_undef122 0 ) ( = UndefCntr0_undef124 0 ) ) ( or ( and ( <= ( + 1 ( * ( - 1 ) FV_undef123_0 ) ) 0 ) ( <= ( + UndefCntr0_CT ( * UndefCntr0_undef122 FV_undef122_0 ) ( * UndefCntr0_undef123 FV_undef123_0 ) ( * UndefCntr0_arg1 FV_arg1_0 ) ( * UndefCntr0_arg2 FV_arg2_0 ) ( * UndefCntr0_arg3 FV_arg3_0 ) ( * UndefCntr0_arg4 FV_arg4_0 ) ( * UndefCntr0_arg5 FV_arg5_0 ) ( * UndefCntr0_undef124 FV_undef124_0 ) ( * UndefCntr0_undef125 FV_undef125_0 ) ( * UndefCntr0_undef126 FV_undef126_0 ) ) 0 ) ) ( and ( <= ( + 1 ( * ( - 1 ) FV_undef123_0 ) ) 0 ) ( <= ( + UndefCntr0_CT ( * UndefCntr0_undef122 FV_undef122_0 ) ( * UndefCntr0_undef123 FV_undef123_0 ) ( * UndefCntr0_arg1 FV_arg1_0 ) ( * UndefCntr0_arg2 FV_arg2_0 ) ( * UndefCntr0_arg3 FV_arg3_0 ) ( * UndefCntr0_arg4 FV_arg4_0 ) ( * UndefCntr0_arg5 FV_arg5_0 ) ( * UndefCntr0_undef124 FV_undef124_0 ) ( * UndefCntr0_undef125 FV_undef125_0 ) ( * UndefCntr0_undef126 FV_undef126_0 ) ) 0 ) ) ) ) ))
(assert ( or ( = UndefCntr0_undef124 0 ) ( and ( and ( = UndefCntr0_arg1 0 ) ( = UndefCntr0_arg2 0 ) ( = UndefCntr0_arg3 0 ) ( = UndefCntr0_arg4 0 ) ( = UndefCntr0_arg5 0 ) ( = UndefCntr0_undef125 0 ) ( = UndefCntr0_undef126 0 ) ( = UndefCntr0_undef122 0 ) ( = UndefCntr0_undef123 0 ) ) ( or ( and ( <= ( + 5 FV_undef124_0 ) 0 ) ( <= ( + UndefCntr0_CT ( * UndefCntr0_undef122 FV_undef122_0 ) ( * UndefCntr0_undef123 FV_undef123_0 ) ( * UndefCntr0_arg1 FV_arg1_0 ) ( * UndefCntr0_arg2 FV_arg2_0 ) ( * UndefCntr0_arg3 FV_arg3_0 ) ( * UndefCntr0_arg4 FV_arg4_0 ) ( * UndefCntr0_arg5 FV_arg5_0 ) ( * UndefCntr0_undef124 FV_undef124_0 ) ( * UndefCntr0_undef125 FV_undef125_0 ) ( * UndefCntr0_undef126 FV_undef126_0 ) ) 0 ) ) ( and ( <= ( + 5 FV_undef124_0 ) 0 ) ( <= ( + UndefCntr0_CT ( * UndefCntr0_undef122 FV_undef122_0 ) ( * UndefCntr0_undef123 FV_undef123_0 ) ( * UndefCntr0_arg1 FV_arg1_0 ) ( * UndefCntr0_arg2 FV_arg2_0 ) ( * UndefCntr0_arg3 FV_arg3_0 ) ( * UndefCntr0_arg4 FV_arg4_0 ) ( * UndefCntr0_arg5 FV_arg5_0 ) ( * UndefCntr0_undef124 FV_undef124_0 ) ( * UndefCntr0_undef125 FV_undef125_0 ) ( * UndefCntr0_undef126 FV_undef126_0 ) ) 0 ) ) ) ) ))
(assert ( or ( and ( >= lam5n0 0 ) ( >= lam5n1 0 ) ( >= lam5n2 0 ) ( >= lam5n3 0 ) ( >= lam5n4 0 ) ( >= lam5n5 0 ) ( >= lam5n6 0 ) ( > ( + ( * 1 lam5n0 ) ( * 1 lam5n1 ) ( * 2 lam5n2 ) ( * 2 lam5n3 ) ( * ( - 2 ) lam5n4 ) ( * 6 lam5n5 ) ( * Nl8CT1 lam5n6 ) ( - 1 ) ) 0 ) ( = ( + ( * ( - 1 ) lam5n0 ) ( * ( - 1 ) lam5n2 ) ( * ( - 1 ) lam5n3 ) ( * 1 lam5n4 ) ( * ( - 1 ) lam5n5 ) ( * Nl8arg11 lam5n6 ) ) 0 ) ( = ( + ( * ( - 1 ) lam5n0 ) ( * ( - 1 ) lam5n1 ) ( * ( - 1 ) lam5n2 ) ( * Nl8arg21 lam5n6 ) ) 0 ) ( = ( + ( * 1 lam5n2 ) ( * 1 lam5n5 ) ( * Nl8arg31 lam5n6 ) ) 0 ) ( = ( + ( * 1 lam5n0 ) ( * 1 lam5n3 ) ( * Nl8arg41 lam5n6 ) ) 0 ) ( = ( * Nl8arg51 lam5n6 ) 0 ) ) ( and ( >= lam6n0 0 ) ( >= lam6n1 0 ) ( >= lam6n2 0 ) ( >= lam6n3 0 ) ( >= lam6n4 0 ) ( >= lam6n5 0 ) ( > ( + ( * 1 lam6n0 ) ( * 1 lam6n1 ) ( * ( - 1 ) lam6n2 ) ( * 2 lam6n3 ) ( * 6 lam6n4 ) ( * Nl8CT1 lam6n5 ) ( - 1 ) ) 0 ) ( = ( + ( * ( - 1 ) lam6n0 ) ( * 1 lam6n2 ) ( * ( - 1 ) lam6n3 ) ( * ( - 1 ) lam6n4 ) ( * Nl8arg11 lam6n5 ) ) 0 ) ( = ( + ( * ( - 1 ) lam6n0 ) ( * ( - 1 ) lam6n1 ) ( * ( - 1 ) lam6n3 ) ( * Nl8arg21 lam6n5 ) ) 0 ) ( = ( + ( * 1 lam6n3 ) ( * 1 lam6n4 ) ( * Nl8arg31 lam6n5 ) ) 0 ) ( = ( + ( * 1 lam6n0 ) ( * ( - 1 ) lam6n2 ) ( * Nl8arg41 lam6n5 ) ) 0 ) ( = ( * Nl8arg51 lam6n5 ) 0 ) ) ( and ( >= lam7n0 0 ) ( >= lam7n1 0 ) ( >= lam7n2 0 ) ( >= lam7n3 0 ) ( >= lam7n4 0 ) ( >= lam7n5 0 ) ( > ( + ( * 1 lam7n0 ) ( * ( - 1 ) lam7n1 ) ( * 2 lam7n3 ) ( * 6 lam7n4 ) ( * Nl8CT1 lam7n5 ) ( - 1 ) ) 0 ) ( = ( + ( * 1 lam7n1 ) ( * 1 lam7n2 ) ( * ( - 1 ) lam7n3 ) ( * ( - 1 ) lam7n4 ) ( * Nl8arg11 lam7n5 ) ) 0 ) ( = ( + ( * ( - 1 ) lam7n0 ) ( * 1 lam7n2 ) ( * ( - 1 ) lam7n3 ) ( * Nl8arg21 lam7n5 ) ) 0 ) ( = ( + ( * 1 lam7n3 ) ( * 1 lam7n4 ) ( * Nl8arg31 lam7n5 ) ) 0 ) ( = ( + ( * ( - 1 ) lam7n1 ) ( * ( - 1 ) lam7n2 ) ( * Nl8arg41 lam7n5 ) ) 0 ) ( = ( * Nl8arg51 lam7n5 ) 0 ) ) ))
(assert ( and ( <= ( + Nl8CT1 ( * Nl8arg11 FV_arg1_2 ) ( * Nl8arg21 FV_arg2_2 ) ( * Nl8arg41 FV_arg4_2 ) ( * Nl8arg31 FV_arg3_2 ) ( * Nl8arg51 FV_arg5_2 ) ) 0 ) ( and ( <= ( + 1 ( * ( - 1 ) FV_arg1_2 ) ( * ( - 1 ) FV_arg2_2 ) FV_arg4_2 ) 0 ) ( <= ( + 1 ( * ( - 1 ) FV_arg2_2 ) ) 0 ) ( <= ( + 1 ( * ( - 1 ) FV_undef122_2 ) ) 0 ) ( <= ( + 1 ( * ( - 1 ) FV_undef123_2 ) ) 0 ) ( <= ( + 2 ( * ( - 1 ) FV_arg1_2 ) ( * ( - 1 ) FV_arg2_2 ) FV_arg3_2 ) 0 ) ( <= ( + 2 ( * ( - 1 ) FV_arg1_2 ) FV_arg4_2 ) 0 ) ( <= ( + 5 FV_undef124_2 ) 0 ) ( <= ( + 3 ( * ( - 1 ) FV_arg1_2 ) ) 0 ) ( <= ( + 6 ( * ( - 1 ) FV_arg1_2 ) FV_arg3_2 ) 0 ) ) ))
(check-sat)
(exit)
